; ISZERO PUSH 0x01 DUP2 EQ => ISZERO DUP1
(set-option :produce-proofs true)
; 
(set-info :status unknown)
(declare-fun storage_t ((_ BitVec 256) Int (_ BitVec 256)) (_ BitVec 256))
(declare-fun storage_s ((_ BitVec 256) Int (_ BitVec 256)) (_ BitVec 256))
(declare-fun exc_halt_t (Int) Bool)
(declare-fun exc_halt_s (Int) Bool)
(declare-fun sc_t (Int) (_ BitVec 6))
(declare-fun stack_t ((_ BitVec 256) Int (_ BitVec 6)) (_ BitVec 256))
(declare-fun stack_s ((_ BitVec 256) Int (_ BitVec 6)) (_ BitVec 256))
(declare-fun sc_s (Int) (_ BitVec 6))
(declare-fun used_gas_t ((_ BitVec 256) Int) Int)
(declare-fun used_gas_s ((_ BitVec 256) Int) Int)
(assert
 (exists ((x_0 (_ BitVec 256)) )(let (($x11595 (forall ((w (_ BitVec 256)) )(let ((?x4699 (storage_t x_0 2 w)))
 (let ((?x11146 (storage_s x_0 4 w)))
 (= ?x11146 ?x4699))))
 ))
 (let (($x8412 (exc_halt_t 2)))
 (let (($x9175 (exc_halt_s 4)))
 (let (($x3580 (= $x9175 $x8412)))
 (let (($x8206 (forall ((n (_ BitVec 6)) )(let ((?x11248 (sc_t 2)))
 (let (($x10889 (bvsle ?x11248 n)))
 (let ((?x1084 (stack_t x_0 2 n)))
 (let ((?x1198 (stack_s x_0 4 n)))
 (let (($x6450 (= ?x1198 ?x1084)))
 (or $x6450 $x10889)))))))
 ))
 (let ((?x11248 (sc_t 2)))
 (let ((?x9433 (sc_s 4)))
 (let (($x7802 (= ?x9433 ?x11248)))
 (let ((?x2133 (used_gas_t x_0 0)))
 (let ((?x7622 (used_gas_s x_0 0)))
 (let (($x1898 (= ?x7622 ?x2133)))
 (let (($x11414 (forall ((w (_ BitVec 256)) )(let ((?x4315 (storage_t x_0 0 w)))
 (let ((?x8089 (storage_s x_0 0 w)))
 (= ?x8089 ?x4315))))
 ))
 (let (($x56 (exc_halt_t 0)))
 (let (($x57 (exc_halt_s 0)))
 (let (($x58 (= $x57 $x56)))
 (let (($x603 (forall ((n (_ BitVec 6)) )(let ((?x3021 (stack_t x_0 0 n)))
 (let ((?x4752 (stack_s x_0 0 n)))
 (let (($x4304 (= ?x4752 ?x3021)))
 (let ((?x63 (sc_t 0)))
 (let (($x848 (bvsle ?x63 n)))
 (or $x848 $x4304)))))))
 ))
 (let ((?x63 (sc_t 0)))
 (let ((?x72 (sc_s 0)))
 (let (($x73 (= ?x72 ?x63)))
 (let (($x4852 (exc_halt_t 1)))
 (let (($x2931 (not (= ((_ extract 6 6) (bvadd (_ bv1 7) (concat (_ bv0 1) (sc_t 1)))) (_ bv0 1)))))
 (let (($x1982 (not (bvsle (_ bv0 6) (bvadd (_ bv63 6) (sc_t 1))))))
 (let (($x3022 (forall ((w (_ BitVec 256)) )(let ((?x1244 (storage_t x_0 1 w)))
 (let ((?x4699 (storage_t x_0 2 w)))
 (= ?x4699 ?x1244))))
 ))
 (let (($x8878 (forall ((n (_ BitVec 6)) )(let ((?x9666 (sc_t 1)))
 (let ((?x4486 (bvadd (_ bv63 6) ?x9666)))
 (let (($x3214 (bvsle ?x4486 n)))
 (or (= (stack_t x_0 2 n) (stack_t x_0 1 n)) $x3214)))))
 ))
 (let (($x3033 (= ?x11248 (bvadd (_ bv1 6) (sc_t 1)))))
 (let ((?x9666 (sc_t 1)))
 (let ((?x4486 (bvadd (_ bv63 6) ?x9666)))
 (let ((?x11645 (stack_t x_0 1 ?x4486)))
 (let (($x6963 (= $x4852 (or $x56 (not (bvsle (_ bv0 6) (bvadd (_ bv63 6) ?x63)))))))
 (let (($x11038 (forall ((w (_ BitVec 256)) )(let ((?x4315 (storage_t x_0 0 w)))
 (let ((?x1244 (storage_t x_0 1 w)))
 (= ?x1244 ?x4315))))
 ))
 (let (($x9622 (forall ((n (_ BitVec 6)) )(let ((?x63 (sc_t 0)))
 (let ((?x3187 (bvadd (_ bv63 6) ?x63)))
 (let (($x4954 (bvsle ?x3187 n)))
 (or $x4954 (= (stack_t x_0 1 n) (stack_t x_0 0 n)))))))
 ))
 (let (($x5415 (= ?x9666 ?x63)))
 (let (($x1163 (= ?x11645 (ite (= (stack_t x_0 0 (bvadd (_ bv63 6) ?x63)) (_ bv0 256)) (_ bv1 256) (_ bv0 256)))))
 (let (($x4038 (= $x9175 (or (exc_halt_s 3) (not (bvsle (_ bv0 6) (bvadd (_ bv62 6) (sc_s 3))))))))
 (let (($x11824 (forall ((w (_ BitVec 256)) )(let ((?x8899 (storage_s x_0 3 w)))
 (let ((?x11146 (storage_s x_0 4 w)))
 (= ?x11146 ?x8899))))
 ))
 (let (($x9820 (forall ((n (_ BitVec 6)) )(let ((?x3851 (sc_s 3)))
 (let ((?x10545 (bvadd (_ bv62 6) ?x3851)))
 (let (($x5274 (bvsle ?x10545 n)))
 (or (= (stack_s x_0 4 n) (stack_s x_0 3 n)) $x5274)))))
 ))
 (let ((?x3851 (sc_s 3)))
 (let ((?x11204 (bvadd (_ bv63 6) ?x3851)))
 (let (($x5034 (= ?x9433 ?x11204)))
 (let ((?x3302 (ite (= (stack_s x_0 3 ?x11204) (stack_s x_0 3 (bvadd (_ bv62 6) ?x3851))) (_ bv1 256) (_ bv0 256))))
 (let (($x10052 (exc_halt_s 2)))
 (let (($x8424 (not (= ((_ extract 6 6) (bvadd (_ bv1 7) (concat (_ bv0 1) (sc_s 2)))) (_ bv0 1)))))
 (let (($x5784 (not (bvsle (_ bv0 6) (bvadd (_ bv62 6) (sc_s 2))))))
 (let (($x8103 (exc_halt_s 3)))
 (let (($x1075 (= $x8103 (or $x5784 $x8424 $x10052))))
 (let (($x10610 (forall ((w (_ BitVec 256)) )(let ((?x5718 (storage_s x_0 2 w)))
 (let ((?x8899 (storage_s x_0 3 w)))
 (= ?x8899 ?x5718))))
 ))
 (let (($x2664 (forall ((n (_ BitVec 6)) )(let ((?x2272 (sc_s 2)))
 (let ((?x3742 (bvadd (_ bv62 6) ?x2272)))
 (let (($x9400 (bvsle ?x3742 n)))
 (or (= (stack_s x_0 3 n) (stack_s x_0 2 n)) $x9400)))))
 ))
 (let (($x11788 (= ?x3851 (bvadd (_ bv1 6) (sc_s 2)))))
 (let (($x2576 (= (stack_s x_0 3 (bvadd (_ bv63 6) (sc_s 2))) (stack_s x_0 2 (bvadd (_ bv63 6) (sc_s 2))))))
 (let ((?x2272 (sc_s 2)))
 (let ((?x3742 (bvadd (_ bv62 6) ?x2272)))
 (let ((?x1277 (stack_s x_0 2 ?x3742)))
 (let (($x11633 (not (= ((_ extract 6 6) (bvadd (_ bv1 7) (concat (_ bv0 1) (sc_s 1)))) (_ bv0 1)))))
 (let (($x8780 (exc_halt_s 1)))
 (let (($x7890 (= $x10052 (or $x8780 $x11633))))
 (let (($x10118 (forall ((w (_ BitVec 256)) )(let ((?x5709 (storage_s x_0 1 w)))
 (let ((?x5718 (storage_s x_0 2 w)))
 (= ?x5718 ?x5709))))
 ))
 (let (($x2533 (forall ((n (_ BitVec 6)) )(let ((?x154 (sc_s 1)))
 (let (($x7468 (bvsle ?x154 n)))
 (or (= (stack_s x_0 2 n) (stack_s x_0 1 n)) $x7468))))
 ))
 (let (($x2632 (= ?x2272 (bvadd (_ bv1 6) (sc_s 1)))))
 (let (($x7120 (= $x8780 (or $x57 (not (bvsle (_ bv0 6) (bvadd (_ bv63 6) ?x72)))))))
 (let (($x1929 (forall ((w (_ BitVec 256)) )(let ((?x8089 (storage_s x_0 0 w)))
 (let ((?x5709 (storage_s x_0 1 w)))
 (= ?x5709 ?x8089))))
 ))
 (let (($x421 (forall ((n (_ BitVec 6)) )(let ((?x72 (sc_s 0)))
 (let ((?x6573 (bvadd (_ bv63 6) ?x72)))
 (let (($x10755 (bvsle ?x6573 n)))
 (or (= (stack_s x_0 1 n) (stack_s x_0 0 n)) $x10755)))))
 ))
 (let ((?x154 (sc_s 1)))
 (let (($x4934 (= ?x154 ?x72)))
 (let (($x4041 (= (stack_s x_0 1 (bvadd (_ bv63 6) ?x154)) (ite (= (stack_s x_0 0 (bvadd (_ bv63 6) ?x72)) (_ bv0 256)) (_ bv1 256) (_ bv0 256)))))
 (let (($x1565 (forall ((w (_ BitVec 256)) )(let ((?x8089 (storage_s x_0 0 w)))
 (= ?x8089 (_ bv0 256))))
 ))
 (let (($x5966 (= ?x7622 0)))
 (let (($x10373 (not $x57)))
 (let (($x7411 (= (stack_s x_0 0 (_ bv0 6)) x_0)))
 (let (($x3513 (= ?x72 (_ bv1 6))))
 (and $x3513 $x7411 $x10373 $x5966 $x1565 $x4041 (= (used_gas_s x_0 1) (+ 3 ?x7622)) $x4934 $x421 $x1929 $x7120 (= (stack_s x_0 2 ?x154) (_ bv1 256)) (= (used_gas_s x_0 2) (+ 3 (used_gas_s x_0 1))) $x2632 $x2533 $x10118 $x7890 (= (stack_s x_0 3 ?x11204) ?x1277) (= (stack_s x_0 3 ?x3742) ?x1277) $x2576 (= (used_gas_s x_0 3) (+ 3 (used_gas_s x_0 2))) $x11788 $x2664 $x10610 $x1075 (= (stack_s x_0 4 (bvadd (_ bv63 6) ?x9433)) ?x3302) (= (used_gas_s x_0 4) (+ 3 (used_gas_s x_0 3))) $x5034 $x9820 $x11824 $x4038 $x1163 (= (used_gas_t x_0 1) (+ 3 ?x2133)) $x5415 $x9622 $x11038 $x6963 (= (stack_t x_0 2 (bvadd (_ bv63 6) ?x11248)) ?x11645) (= (stack_t x_0 2 ?x4486) ?x11645) (= (used_gas_t x_0 2) (+ 3 (used_gas_t x_0 1))) $x3033 $x8878 $x3022 (= $x8412 (or $x1982 $x2931 $x4852)) $x73 $x603 $x58 $x11414 $x1898 (not (and $x7802 $x8206 $x3580 $x11595)))))))))))))))))))))))))))))))))))))))))))))))))))))))))))))))))))))))))
 )
(check-sat)
(get-proof)
